CMPL model generation - running

CMPL version: 1.11.0
Authors: Thomas Schleiff, Mike Steglich
Distributed under the GPLv3 

create model instance ...
write model instance ...
CMPL model generation - finished

Solver - running


Welcome to IBM(R) ILOG(R) CPLEX(R) Interactive Optimizer 12.7.1.0
  with Simplex, Mixed Integer & Barrier Optimizers
5725-A06 5725-A29 5724-Y48 5724-Y49 5724-Y54 5724-Y55 5655-Y21
Copyright IBM Corp. 1988, 2017.  All Rights Reserved.

Type 'help' for a list of available commands.
Type 'help' followed by a command name for more
information on commands.

CPLEX> Specified objective sense: MINIMIZE
Selected objective  name:  line[1]
Selected RHS        name:  RHS
Selected bound      name:  BOUND
Problem '/tmp/cmpl.T23830.mps' read.
Read time = 0.07 sec. (10.12 ticks)
CPLEX> CPXPARAM_Read_APIEncoding                        "UTF-8"
Tried aggregator 3 times.
MIP Presolve eliminated 24044 rows and 37656 columns.
MIP Presolve modified 425 coefficients.
Aggregator did 729 substitutions.
Reduced MIP has 3149 rows, 4070 columns, and 12042 nonzeros.
Reduced MIP has 3860 binaries, 0 generals, 0 SOSs, and 0 indicators.
Presolve time = 0.07 sec. (51.90 ticks)
Found incumbent of value 543.320937 after 0.11 sec. (77.20 ticks)
Probing fixed 9 vars, tightened 0 bounds.
Probing time = 0.01 sec. (5.25 ticks)
Tried aggregator 1 time.
MIP Presolve eliminated 0 rows and 9 columns.
MIP Presolve modified 41 coefficients.
Reduced MIP has 3149 rows, 4061 columns, and 12024 nonzeros.
Reduced MIP has 4061 binaries, 0 generals, 0 SOSs, and 0 indicators.
Presolve time = 0.01 sec. (10.20 ticks)
Probing time = 0.01 sec. (2.83 ticks)
Clique table members: 7323.
MIP emphasis: balance optimality and feasibility.
MIP search method: dynamic search.
Parallel mode: none, using 1 thread.
Root relaxation solution time = 0.01 sec. (5.78 ticks)

        Nodes                                         Cuts/
   Node  Left     Objective  IInf  Best Integer    Best Bound    ItCnt     Gap

*     0+    0                          543.3209      -36.1169           106.65%
      0     0      138.6800    15      543.3209      138.6800      141   74.48%
*     0+    0                          162.4805      138.6800            14.65%
*     0+    0                          139.0228      138.6800             0.25%
*     0     0      integral     0      139.0000      Cuts: 12      146    0.00%
      0     0        cutoff            139.0000      139.0000      146    0.00%
Elapsed time = 0.19 sec. (125.02 ticks, tree = 0.01 MB, solutions = 4)

Clique cuts applied:  3
Cover cuts applied:  6
Gomory fractional cuts applied:  3

Root node processing (before b&c):
  Real time             =    0.19 sec. (127.13 ticks)
Sequential b&c:
  Real time             =    0.00 sec. (0.00 ticks)
                          ------------
Total (root+branch&cut) =    0.19 sec. (127.13 ticks)

Solution pool: 4 solutions saved.

MIP - Integer optimal solution:  Objective =  1.3899998600e+02
Solution time =    0.19 sec.  Iterations = 146  Nodes = 0
Deterministic time = 127.25 ticks  (667.62 ticks/sec)

CPLEX> Incumbent solution written to file '/tmp/cmpl.T23830.gsol'.
CPLEX> 
CMPL: Time used for model generation: 1 seconds
CMPL: Time used for solving the model: 1 seconds


Solution written to ASCII file: results/output_generated_conf_0.3/2016-02-01-5/fair-nonlinear.sol

Solver - finished
